study/exp-portion-fine-grain-4v100/run-logs-backup-12-06/samgraph_cache_graphsage_kKHop2_papers100M-undir_coll_cache_asymm_link_2_cache_rate_008_batch_size_8000_concurrent_impl_MPS.log
config:eval_tsp="2022-12-05 18:23:34"
config:arch=arch5
config:num_train_worker=3
config:num_sample_worker=1
config:sample_type=khop2
config:root_path=/nvme/graph-learning-copy/samgraph/
config:dataset=papers100M-undir
config:pipeline=False
config:cache_policy=coll_cache_asymm_link
config:cache_percentage=0.08
config:num_epoch=4
config:batch_size=8000
config:num_hidden=256
config:max_sampling_jobs=1
config:max_copying_jobs=1
config:barriered_epoch=1
config:presample_epoch=2
config:omp_thread_num=13
config:unsupervised=False
config:amp=True
config:rolling=0
config:fanout=[25, 10]
config:lr=0.003
config:dropout=0.5
config:single_gpu=False
config:max_num_step=100000
config:validate_configs=False
config:report_acc=0
config:dataset_path=/nvme/graph-learning-copy/samgraph/papers100M-undir
config:torch_thread_num=13
config:train_workers=['cuda:0', 'cuda:1', 'cuda:2']
config:sample_workers=['cuda:3']
config:num_fanout=2
config:num_layer=2
config:_run_mode=RunMode.FGNN
config:_log_level=warn
config:_profile_level=3
config:_empty_feat=0
config:_arch=5
config:_sample_type=5
config:_cache_policy=13
test_result:init:input_scale_factor=1.1
0 :  {link #0 : 1}, {link #1 : 2},
1 :  {link #0 : 2}, {link #1 : 0},
2 :  {link #0 : 0}, {link #1 : 1},
0 :  {link #0 : 1}, {link #1 : 2},
1 :  {link #0 : 2}, {link #1 : 0},
2 :  {link #0 : 0}, {link #1 : 1},
0 :  {link #0 : 1}, {link #1 : 2},
1 :  {link #0 : 2}, {link #1 : 0},
2 :  {link #0 : 0}, {link #1 : 1},
Set parameter WLSAccessID
Set parameter WLSSecret
Set parameter LicenseID
Set parameter TimeLimit to value 200
Set parameter MIPGap to value 0.05
Set parameter GomoryPasses to value 0
Set parameter Aggregate to value 0
Set parameter LogFile to value "cppsolver.log"
Set parameter Threads to value 26
Academic license - for non-commercial use only - registered to xiaoniu.sxn@sjtu.edu.cn
Gurobi Optimizer version 9.5.1 build v9.5.1rc2 (linux64)
Thread count: 40 physical cores, 80 logical processors, using up to 26 threads
Academic license - for non-commercial use only - registered to xiaoniu.sxn@sjtu.edu.cn
Optimize a model with 21372 rows, 10174 columns and 64086 nonzeros
Model fingerprint: 0xf37bab17
Variable types: 4 continuous, 10170 integer (10170 binary)
Coefficient statistics:
  Matrix range     [7e-05, 4e+02]
  Objective range  [1e+00, 1e+00]
  Bounds range     [1e+00, 1e+00]
  RHS range        [1e+00, 2e+02]
Found heuristic solution: objective 2.000000e+09
Presolve removed 12206 rows and 0 columns
Presolve time: 0.08s
Presolved: 9166 rows, 10174 columns, 37642 nonzeros
Found heuristic solution: objective 8098.1357309
Variable types: 4 continuous, 10170 integer (10170 binary)

Root relaxation: objective 3.795248e+02, 7736 iterations, 0.18 seconds (0.14 work units)

    Nodes    |    Current Node    |     Objective Bounds      |     Work
 Expl Unexpl |  Obj  Depth IntInf | Incumbent    BestBd   Gap | It/Node Time

     0     0  379.52478    0   27 8098.13573  379.52478  95.3%     -    0s
H    0     0                     488.3448241  379.52478  22.3%     -    0s
H    0     0                     380.8323055  379.52478  0.34%     -    1s

Explored 1 nodes (10138 simplex iterations) in 1.25 seconds (0.75 work units)
Thread count was 26 (of 80 available processors)

Solution count 4: 380.832 488.345 8098.14 2e+09 

Optimal solution found (tolerance 5.00e-02)
Best objective 3.808323054754e+02, best bound 3.795247766877e+02, gap 0.3433%
coll_cache:optimal_local_rate=0.892942,0.891681,0.891853,
coll_cache:optimal_remote_rate=0.0850506,0.0863111,0.0861394,
coll_cache:optimal_cpu_rate=0.0220079,0.0220079,0.0220079,
z=380.832
test_result:init:feat_nbytes=56862697472
test_result:init:cache_nbytes=4545580032
test_result:init:feat_nbytes=56862697472
test_result:init:cache_nbytes=4554199040
test_result:init:feat_nbytes=56862697472
test_result:init:cache_nbytes=4550497792
0 :  {link #0 : 1}, {link #1 : 2},
1 :  {link #0 : 2}, {link #1 : 0},
2 :  {link #0 : 0}, {link #1 : 1},
0 :  {link #0 : 1}, {link #1 : 2},
1 :  {link #0 : 2}, {link #1 : 0},
2 :  {link #0 : 0}, {link #1 : 1},
0 :  {link #0 : 1}, {link #1 : 2},
1 :  {link #0 : 2}, {link #1 : 0},
2 :  {link #0 : 0}, {link #1 : 1},
Set parameter WLSAccessID
Set parameter WLSSecret
Set parameter LicenseID
Set parameter TimeLimit to value 200
Set parameter MIPGap to value 0.05
Set parameter GomoryPasses to value 0
Set parameter Aggregate to value 0
Set parameter LogFile to value "cppsolver.log"
Set parameter Threads to value 26
Academic license - for non-commercial use only - registered to xiaoniu.sxn@sjtu.edu.cn
Gurobi Optimizer version 9.5.1 build v9.5.1rc2 (linux64)
Thread count: 40 physical cores, 80 logical processors, using up to 26 threads
Academic license - for non-commercial use only - registered to xiaoniu.sxn@sjtu.edu.cn
Optimize a model with 21372 rows, 10174 columns and 64086 nonzeros
Model fingerprint: 0xa8e9ba92
Variable types: 4 continuous, 10170 integer (10170 binary)
Coefficient statistics:
  Matrix range     [7e-05, 4e+02]
  Objective range  [1e+00, 1e+00]
  Bounds range     [1e+00, 1e+00]
  RHS range        [1e+00, 2e+02]
Found heuristic solution: objective 2.000000e+09
Presolve removed 12206 rows and 0 columns
Presolve time: 0.08s
Presolved: 9166 rows, 10174 columns, 37642 nonzeros
Found heuristic solution: objective 8251.1112821
Variable types: 4 continuous, 10170 integer (10170 binary)

Root relaxation: objective 3.795248e+02, 7899 iterations, 0.18 seconds (0.16 work units)

    Nodes    |    Current Node    |     Objective Bounds      |     Work
 Expl Unexpl |  Obj  Depth IntInf | Incumbent    BestBd   Gap | It/Node Time

     0     0  379.52478    0   27 8251.11128  379.52478  95.4%     -    0s
H    0     0                     380.2552735  379.52478  0.19%     -    1s

Explored 1 nodes (10960 simplex iterations) in 1.28 seconds (0.80 work units)
Thread count was 26 (of 80 available processors)

Solution count 3: 380.255 8251.11 2e+09 

Optimal solution found (tolerance 5.00e-02)
Best objective 3.802552734858e+02, best bound 3.795247766877e+02, gap 0.1921%
coll_cache:optimal_local_rate=0.892159,0.892673,0.892195,
coll_cache:optimal_remote_rate=0.085833,0.0853192,0.0857976,
coll_cache:optimal_cpu_rate=0.0220079,0.0220079,0.0220079,
z=380.255
test_result:init:cache_nbytes=0
test_result:init:cache_nbytes=0
test_result:init:cache_nbytes=0
[Train  Worker 2/3] Started with PID 141857(Tesla V100-SXM2-16GB)
[Train  Worker 2] run train for 4 epochs with 153 steps
[Train  Worker 2] Avg Epoch Time 0.6785 | Train Total Time(Profiler) 0.4190 | Copy Time 0.2549
[Train  Worker 0/3] Started with PID 141854(Tesla V100-SXM2-16GB)
[Train  Worker 0] run train for 4 epochs with 153 steps
Epoch 00000 | Epoch Time 1.7888 | Total Train Time(Profiler) 1.5117 | Copy Time 0.2714
Epoch 00001 | Epoch Time 0.6765 | Total Train Time(Profiler) 0.4183 | Copy Time 0.2537
Epoch 00002 | Epoch Time 0.6779 | Total Train Time(Profiler) 0.4189 | Copy Time 0.2539
Epoch 00003 | Epoch Time 0.6811 | Total Train Time(Profiler) 0.4226 | Copy Time 0.2537
[Train  Worker 0] Avg Epoch Time 0.6785 | Train Total Time(Profiler) 0.4199 | Copy Time 0.2538
[Train  Worker 1/3] Started with PID 141856(Tesla V100-SXM2-16GB)
[Train  Worker 1] run train for 4 epochs with 153 steps
[Train  Worker 1] Avg Epoch Time 0.6785 | Train Total Time(Profiler) 0.4191 | Copy Time 0.2549
    [Step(average) Profiler Level 1 E3 S152]
        L1  sample           0.005571 | send           0.001403
        L1  recv             0.000000 | copy           0.000000 | convert time 0.000000 | train  0.000000
        L1  feature nbytes 0.00 Bytes | label nbytes 0.00 Bytes
        L1  id nbytes      0.00 Bytes | graph nbytes 0.00 Bytes
        L1  miss nbytes    0.00 Bytes | remote nbytes 0.00 Bytes
        L1  num nodes         1100864 | num samples     1712865
    [Step(average) Profiler Level 2 E3 S152]
        L2  shuffle     0.000254 | core sample  0.002041 | id remap        0.003177
        L2  graph copy  0.000000 | id copy      0.000000 | cache feat copy 0.000000
        L2  last layer sample time 0.000320 | size 72444.592593
    [Step(average) Profiler Level 3 E3 S152]
        L3  khop sample coo  0.001725 | khop sort coo      0.000000 | khop count edge     0.000038 | khop compact edge 0.000239
        L3  walk sample coo  0.000000 | walk topk total    0.000000 | walk topk step1     0.000000 | walk topk step2   0.000000
        L3  walk topk step3  0.000000 | walk topk step4    0.000000 | walk topk step5     0.000000
        L3  walk topk step6  0.000000 | walk topk step7    0.000000
        L3  remap unique     0.000000 | remap populate     0.002644 | remap mapnode       0.000000 | remap mapedge     0.000533
        L3  cache get_index  0.000000 | cache copy_index   0.000000 | cache extract_miss  0.000000
        L3  cache copy_miss  0.000000 | cache combine_miss 0.000000 | cache combine cache 0.000000 | cache combine remote 0.000000
        L3  label extract  0.000000
    [Init Profiler Level 1]
        L1  init     5.0902 | sampler init    12.2315 | trainer init 0.0000
    [Init Profiler Level 2]
        L2  load ds         8.1682 | init queue           3.4268
        L2  presample       3.9727 | build interal ds     1.7512
        L2  build cache     0.0000
    [Init Profiler Level 3]
        L3  load dataset: mmap     5.0864 | copy         3.0818
        L3  dist queue: alloc      0.0017 | pin          3.4251 | push     0.0000
        L3  presample: init        0.2947
        L3  presample: sample      1.6976 | copy         0.1080
        L3  presample: count       1.1969 | sort         0.2842
        L3  presample: reset       0.0008 | get rank     0.0399
        L3  internal: cuda ctx     1.5208 | cuda stream     0.2253
[Sample Worker 0/1] Started with PID 141853(Tesla V100-SXM2-16GB)
[Sample Worker 0] run sample for 4 epochs with 153 steps
[Sample Worker 0] Avg Sample Total Time 1.0685 | Sampler Total Time(Profiler) 1.0671
test_result:sample_time=0.8524
test_result:get_cache_miss_index_time=0.0000
test_result:enqueue_samples_time=0.2147
test_result:epoch_time:sample_total=1.0685
[CUDA] cuda0: usage: 10.20 GB
[SAM] cuda0 data alloc        : 0.00 Bytes
[SAM] cuda0 workspace         : 1.22 GB
[SAM] cuda0 workspace reserve : 619.01 MB
[SAM] cuda0 total             : 1.22 GB
    [Step(average) Profiler Level 1 E3 S152]
        L1  sample           0.000000 | send           0.000000
        L1  recv             0.001561 | copy           0.004991 | convert time 0.000382 | train  0.007841
        L1  feature nbytes  537.53 MB | label nbytes   62.50 KB
        L1  id nbytes      0.00 Bytes | graph nbytes 0.00 Bytes
        L1  miss nbytes      18.59 MB | remote nbytes   43.56 MB
        L1  num nodes               0 | num samples           0
    [Step(average) Profiler Level 2 E3 S152]
        L2  shuffle     0.000000 | core sample  0.000000 | id remap        0.000000
        L2  graph copy  0.000003 | id copy      0.000000 | cache feat copy 0.003426
        L2  last layer sample time 0.000000 | size 0.000000
    [Step(average) Profiler Level 3 E3 S152]
        L3  khop sample coo  0.000000 | khop sort coo      0.000000 | khop count edge     0.000000 | khop compact edge 0.000000
        L3  walk sample coo  0.000000 | walk topk total    0.000000 | walk topk step1     0.000000 | walk topk step2   0.000000
        L3  walk topk step3  0.000000 | walk topk step4    0.000000 | walk topk step5     0.000000
        L3  walk topk step6  0.000000 | walk topk step7    0.000000
        L3  remap unique     0.000000 | remap populate     0.000000 | remap mapnode       0.000000 | remap mapedge     0.000000
        L3  cache get_index  0.000706 | cache copy_index   0.000000 | cache extract_miss  0.000000
        L3  cache copy_miss  0.000000 | cache combine_miss 0.002535 | cache combine cache 0.001479 | cache combine remote 0.000587
        L3  label extract  0.000175
    [Init Profiler Level 1]
        L1  init     5.0902 | sampler init     0.0000 | trainer init 63.8600
    [Init Profiler Level 2]
        L2  load ds         5.0864 | init queue           3.4042
        L2  presample       0.0000 | build interal ds     1.4543
        L2  build cache    58.9982
    [Init Profiler Level 3]
        L3  load dataset: mmap     5.0864 | copy         0.0000
        L3  dist queue: alloc      0.0017 | pin          3.4025 | push     0.0000
        L3  presample: init        0.0000
        L3  presample: sample      0.0000 | copy         0.0000
        L3  presample: count       0.0000 | sort         0.0000
        L3  presample: reset       0.0000 | get rank     0.0000
        L3  internal: cuda ctx     1.4542 | cuda stream     0.0001
|===========================================================================|
|                  PyTorch CUDA memory summary, device ID 0                 |
|---------------------------------------------------------------------------|
|            CUDA OOMs: 0            |        cudaMalloc retries: 0         |
|===========================================================================|
|        Metric         | Cur Usage  | Peak Usage | Tot Alloc  | Tot Freed  |
|---------------------------------------------------------------------------|
| Allocated memory      |   22890 KB |  402674 KB |  284777 MB |  284755 MB |
|       from large pool |   18215 KB |  399293 KB |  282665 MB |  282647 MB |
|       from small pool |    4675 KB |    7146 KB |    2112 MB |    2107 MB |
|---------------------------------------------------------------------------|
| Active memory         |   22890 KB |  402674 KB |  284777 MB |  284755 MB |
|       from large pool |   18215 KB |  399293 KB |  282665 MB |  282647 MB |
|       from small pool |    4675 KB |    7146 KB |    2112 MB |    2107 MB |
|---------------------------------------------------------------------------|
| GPU reserved memory   |  577536 KB |  577536 KB |  577536 KB |       0 B  |
|       from large pool |  569344 KB |  569344 KB |  569344 KB |       0 B  |
|       from small pool |    8192 KB |    8192 KB |    8192 KB |       0 B  |
|---------------------------------------------------------------------------|
| Non-releasable memory |   24213 KB |  368862 KB |  339456 MB |  339432 MB |
|       from large pool |   22745 KB |  367042 KB |  337042 MB |  337020 MB |
|       from small pool |    1468 KB |    3609 KB |    2413 MB |    2411 MB |
|---------------------------------------------------------------------------|
| Allocations           |      38    |      51    |   22680    |   22642    |
|       from large pool |       3    |      14    |    8976    |    8973    |
|       from small pool |      35    |      39    |   13704    |   13669    |
|---------------------------------------------------------------------------|
| Active allocs         |      39    |      51    |   22680    |   22641    |
|       from large pool |       3    |      14    |    8976    |    8973    |
|       from small pool |      36    |      39    |   13704    |   13668    |
|---------------------------------------------------------------------------|
| GPU reserved segments |      13    |      13    |      13    |       0    |
|       from large pool |       9    |       9    |       9    |       0    |
|       from small pool |       4    |       4    |       4    |       0    |
|---------------------------------------------------------------------------|
| Non-releasable allocs |      13    |      25    |   10474    |   10461    |
|       from large pool |       4    |      12    |    5111    |    5107    |
|       from small pool |       9    |      15    |    5363    |    5354    |
|---------------------------------------------------------------------------|
| Oversize allocations  |       0    |       0    |       0    |       0    |
|---------------------------------------------------------------------------|
| Oversize GPU segments |       0    |       0    |       0    |       0    |
|===========================================================================|

test_result:epoch_time:copy_time=0.2538
test_result:convert_time=0.0194
test_result:train_time=0.4005
test_result:epoch_time:train_total=0.4199
test_result:cache_percentage=0.0800
test_result:cache_hit_rate=1.0000
test_result:run_time=8.1323
